p cnf 21 49
a 10 5 0
e 1 2 3 4 6 7 8 9 11 12 13 14 15 16 17 18 19 20 21 0
-2 3 -4 0
2 -3 -4 0
-2 -3 4 0
2 3 4 0
4 -5 -6 0
-4 5 -6 0
4 5 6 0
-4 -5 6 0
-7 1 0
-7 -6 0
-1 6 7 0
-2 8 -9 0
2 -8 -9 0
-2 -8 9 0
2 8 9 0
-10 7 0
-10 9 0
-7 -9 10 0
-11 -2 -12 0
11 2 -12 0
-11 2 12 0
11 -2 12 0
-13 -1 0
-13 8 0
1 -8 13 0
14 12 0
14 -13 0
-12 13 -14 0
16 -15 0
16 -5 0
15 5 -16 0
17 14 0
17 16 0
-14 -16 -17 0
-10 -17 -18 0
10 17 -18 0
-10 17 18 0
10 -17 18 0
-20 8 0
-20 -19 0
-8 19 20 0
-21 18 0
-21 20 0
-18 -20 21 0
-14 -11 -15 6 12 0
-15 -17 -14 0
-12 10 -2 0
-14 13 -15 -10 0
21 0
